8004.0, 7044.0, 6082.0, 6050.0, 5117.0, 4157.0, 3196.0, 3191.0, 2234.0, 1270.0, 1270.0, 1263.0, 310, 309, 307, 301, 298, 294, 294, 285, 282, 280, 275, 271, 266, 261, 259, 253, 248, 248, 242, 238, 232, 230, 226, 226, 221, 220, 215, 214, 211, 206, 202, 200, 193, 190, 188, 184, 183, 180, 179, 178, 176, 174, 172, 168, 168, 166, 164, 162, 156, 156, 150, 150, 150, 144, 144, 144, 142, 137, 136, 134, 133, 133, 130, 130, 129, 128, 128, 127, 127, 126, 126, 124, 124, 124, 123, 122, 120, 117, 117, 117, 117, 117, 115, 115, 115, 115, 115, 115, 
penalties info:
(0, 0, 0)
8
0
2
0
0
